v1 = 5;
v2 = 5;
vertexWeights = [-45, -45, -45, -45, -45, -45, -40.30508652763321, -90, -90, -20.155644370746373, -90, -45, -90, -7.280109889280518, -90, -90, -90, -45, -90, -90, -41.8867520822515, -90, -74.24957912338628, -45, -74.11140263144397, -90, -90, -38.55191305240247, -90, -45, -90, -90, -36.24913792078372, -90, -44.30011286667337];
edgeWeights = [| 0, 0, 0, 0, -15.0, 0, 0, 0, 0, 0, -15.0, 0, 0, 0, 0, 0, -15.0, 0, 0, 0, 0, 0, -15.0, 0, 0, 0, 0, 0, -15.0, 0, 0, 0, 0, 0, -15.0
| 0, 0, 0, 0, 0, 0, 0, 0, 0, 0, 0, 0, 0, 0, 0, 0, 0, 0, 0, 0, 0, 0, 0, 0, 0, 0, 0, 0, 0, 0, 0, 0, 0, 0, 0
| 0, 0, 0, -15.0, 0, 0, 0, 0, 0, -15.0, 0, 0, 0, 0, 0, -15.0, 0, 0, 0, 0, 0, -15.0, 0, 0, 0, 0, 0, -15.0, 0, 0, 0, 0, 0, -15.0, 0
| 0, 0, -15.0, 0, 0, 0, 0, 0, -15.0, 0, 0, 0, 0, 0, -15.0, 0, 0, 0, 0, 0, -15.0, 0, 0, 0, 0, 0, -15.0, 0, 0, 0, 0, 0, -15.0, 0, 0
| -15.0, 0, 0, 0, 0, 0, -15.0, 0, 0, 0, 0, 0, -15.0, 0, 0, 0, 0, 0, -15.0, 0, 0, 0, 0, 0, -15.0, 0, 0, 0, 0, 0, -15.0, 0, 0, 0, 0
| 0, 0, 0, 0, 0, 0, 0, 0, 0, 0, 0, 0, 0, 0, 0, 0, 0, 0, 0, 0, 0, 0, 0, 0, 0, 0, 0, 0, 0, -15.0, -15.0, -15.0, -15.0, -15.0, -15.0
| 0, -0.0, -0.0, -0.0, -15.0, 0, 0, 0, 0, 0, 0, -0.0, 0, 0, 0, 0, -15.0, -0.0, 0, 0, 0, 0, -15.0, -0.0, 0, 0, 0, 0, -15.0, -15.0, 0, -0.0, -0.0, -0.0, -0.0
| -0.0, 0, -0.0, -0.0, -0.0, 0, 0, 0, 0, 0, 0, -0.0, 0, 0, 0, 0, 0, -0.0, 0, 0, 0, 0, 0, -0.0, 0, 0, 0, 0, 0, -15.0, -0.0, 0, -0.0, -0.0, -15.0
| -0.0, -0.0, 0, -15.0, -0.0, 0, 0, 0, 0, 0, 0, -0.0, 0, 0, 0, -15.0, 0, -0.0, 0, 0, 0, -15.0, 0, -0.0, 0, 0, 0, -15.0, 0, -15.0, -0.0, -0.0, 0, -0.0, -15.0
| -0.0, -0.0, -15.0, 0, -0.0, 0, 0, 0, 0, 0, 0, -0.0, 0, 0, -15.0, 0, 0, -0.0, 0, 0, -15.0, 0, 0, -0.0, 0, 0, -15.0, 0, 0, -15.0, -0.0, -0.0, -0.0, 0, -15.0
| -15.0, -0.0, -0.0, -0.0, 0, 0, 0, 0, 0, 0, 0, -0.0, -15.0, 0, 0, 0, 0, -0.0, -15.0, 0, 0, 0, 0, -0.0, -15.0, 0, 0, 0, 0, -15.0, -0.0, -0.0, -0.0, -0.0, 0
| 0, 0, 0, 0, 0, 0, 0, 0, 0, 0, 0, 0, 0, 0, 0, 0, 0, 0, 0, 0, 0, 0, 0, 0, 0, 0, 0, 0, 0, 0, 0, 0, 0, 0, 0
| 0, -0.0, -0.0, -0.0, -15.0, -0.0, 0, 0, 0, 0, -15.0, 0, 0, 0, 0, 0, 0, -0.0, 0, 0, 0, 0, -15.0, -0.0, 0, 0, 0, 0, -15.0, -0.0, 0, 0, 0, 0, -15.0
| -0.0, 0, -0.0, -0.0, -0.0, -0.0, 0, 0, 0, 0, 0, 0, 0, 0, 0, 0, 0, -0.0, 0, 0, 0, 0, 0, -0.0, 0, 0, 0, 0, 0, -0.0, 0, 0, 0, 0, 0
| -0.0, -0.0, 0, -15.0, -0.0, -0.0, 0, 0, 0, -15.0, 0, 0, 0, 0, 0, 0, 0, -0.0, 0, 0, 0, -15.0, 0, -0.0, 0, 0, 0, -15.0, 0, -0.0, 0, 0, 0, -15.0, 0
| -0.0, -0.0, -15.0, 0, -0.0, -0.0, 0, 0, -15.0, 0, 0, 0, 0, 0, 0, 0, 0, -0.0, 0, 0, -15.0, 0, 0, -0.0, 0, 0, -15.0, 0, 0, -0.0, 0, 0, -15.0, 0, 0
| -15.0, -0.0, -0.0, -0.0, 0, -0.0, -15.0, 0, 0, 0, 0, 0, 0, 0, 0, 0, 0, -0.0, -15.0, 0, 0, 0, 0, -0.0, -15.0, 0, 0, 0, 0, -0.0, -15.0, 0, 0, 0, 0
| 0, 0, 0, 0, 0, 0, 0, 0, 0, 0, 0, 0, 0, 0, 0, 0, 0, 0, 0, 0, 0, 0, 0, -15.0, -15.0, -15.0, -15.0, -15.0, -15.0, 0, 0, 0, 0, 0, 0
| 0, -0.0, -0.0, -0.0, -15.0, -0.0, 0, 0, 0, 0, -15.0, -0.0, 0, 0, 0, 0, -15.0, 0, 0, 0, 0, 0, 0, -15.0, 0, -0.0, -0.0, -15.0, -0.0, -0.0, 0, 0, 0, 0, -15.0
| -0.0, 0, -0.0, -0.0, -0.0, -0.0, 0, 0, 0, 0, 0, -0.0, 0, 0, 0, 0, 0, 0, 0, 0, 0, 0, 0, -15.0, -0.0, 0, -0.0, -15.0, -0.0, -0.0, 0, 0, 0, 0, 0
| -0.0, -0.0, 0, -15.0, -0.0, -0.0, 0, 0, 0, -15.0, 0, -0.0, 0, 0, 0, -15.0, 0, 0, 0, 0, 0, 0, 0, -15.0, -0.0, -0.0, 0, -0.0, -0.0, -0.0, 0, 0, 0, -15.0, 0
| -0.0, -0.0, -15.0, 0, -0.0, -0.0, 0, 0, -15.0, 0, 0, -0.0, 0, 0, -15.0, 0, 0, 0, 0, 0, 0, 0, 0, -15.0, -0.0, -0.0, -0.0, 0, -0.0, -0.0, 0, 0, -15.0, 0, 0
| -15.0, -0.0, -0.0, -0.0, 0, -0.0, -15.0, 0, 0, 0, 0, -0.0, -15.0, 0, 0, 0, 0, 0, 0, 0, 0, 0, 0, -15.0, -0.0, -0.0, -0.0, -15.0, 0, -0.0, -15.0, 0, 0, 0, 0
| 0, 0, 0, 0, 0, 0, 0, 0, 0, 0, 0, 0, 0, 0, 0, 0, 0, -15.0, -15.0, -15.0, -15.0, -15.0, -15.0, 0, 0, 0, 0, 0, 0, 0, 0, 0, 0, 0, 0
| 0, -0.0, -0.0, -0.0, -15.0, -0.0, 0, 0, 0, 0, -15.0, -0.0, 0, 0, 0, 0, -15.0, -15.0, 0, -0.0, -15.0, -0.0, -0.0, 0, 0, 0, 0, 0, 0, -0.0, 0, 0, 0, 0, -15.0
| -0.0, 0, -0.0, -0.0, -0.0, -0.0, 0, 0, 0, 0, 0, -0.0, 0, 0, 0, 0, 0, -15.0, -0.0, 0, -15.0, -0.0, -0.0, 0, 0, 0, 0, 0, 0, -0.0, 0, 0, 0, 0, 0
| -0.0, -0.0, 0, -15.0, -0.0, -0.0, 0, 0, 0, -15.0, 0, -0.0, 0, 0, 0, -15.0, 0, -15.0, -0.0, -0.0, 0, -0.0, -0.0, 0, 0, 0, 0, 0, 0, -0.0, 0, 0, 0, -15.0, 0
| -0.0, -0.0, -15.0, 0, -0.0, -0.0, 0, 0, -15.0, 0, 0, -0.0, 0, 0, -15.0, 0, 0, -15.0, -0.0, -0.0, -0.0, 0, -0.0, 0, 0, 0, 0, 0, 0, -0.0, 0, 0, -15.0, 0, 0
| -15.0, -0.0, -0.0, -0.0, 0, -0.0, -15.0, 0, 0, 0, 0, -0.0, -15.0, 0, 0, 0, 0, -15.0, -0.0, -0.0, -15.0, -0.0, 0, 0, 0, 0, 0, 0, 0, -0.0, -15.0, 0, 0, 0, 0
| 0, 0, 0, 0, 0, -15.0, -15.0, -15.0, -15.0, -15.0, -15.0, 0, 0, 0, 0, 0, 0, 0, 0, 0, 0, 0, 0, 0, 0, 0, 0, 0, 0, 0, 0, 0, 0, 0, 0
| 0, -0.0, -0.0, -0.0, -15.0, -15.0, 0, -0.0, -0.0, -0.0, -0.0, -0.0, 0, 0, 0, 0, -15.0, -0.0, 0, 0, 0, 0, -15.0, -0.0, 0, 0, 0, 0, -15.0, 0, 0, 0, 0, 0, 0
| -0.0, 0, -0.0, -0.0, -0.0, -15.0, -15.0, 0, -0.0, -0.0, -0.0, -0.0, 0, 0, 0, 0, 0, -0.0, 0, 0, 0, 0, 0, -0.0, 0, 0, 0, 0, 0, 0, 0, 0, 0, 0, 0
| -0.0, -0.0, 0, -15.0, -0.0, -15.0, -15.0, -0.0, 0, -0.0, -0.0, -0.0, 0, 0, 0, -15.0, 0, -0.0, 0, 0, 0, -15.0, 0, -0.0, 0, 0, 0, -15.0, 0, 0, 0, 0, 0, 0, 0
| -0.0, -0.0, -15.0, 0, -0.0, -15.0, -15.0, -0.0, -0.0, 0, -0.0, -0.0, 0, 0, -15.0, 0, 0, -0.0, 0, 0, -15.0, 0, 0, -0.0, 0, 0, -15.0, 0, 0, 0, 0, 0, 0, 0, 0
| -15.0, -0.0, -0.0, -0.0, 0, -15.0, -0.0, -0.0, -0.0, -0.0, 0, -0.0, -15.0, 0, 0, 0, 0, -0.0, -15.0, 0, 0, 0, 0, -0.0, -15.0, 0, 0, 0, 0, 0, 0, 0, 0, 0, 0 |];
adjacent = [| 0, 1, 1, 1, 1, 1, 0, 1, 1, 1, 1, 1, 0, 1, 1, 1, 1, 1, 0, 1, 1, 1, 1, 1, 0, 1, 1, 1, 1, 1, 0, 1, 1, 1, 1
| 1, 0, 1, 1, 1, 1, 1, 0, 1, 1, 1, 1, 1, 0, 1, 1, 1, 1, 1, 0, 1, 1, 1, 1, 1, 0, 1, 1, 1, 1, 1, 0, 1, 1, 1
| 1, 1, 0, 1, 1, 1, 1, 1, 0, 1, 1, 1, 1, 1, 0, 1, 1, 1, 1, 1, 0, 1, 1, 1, 1, 1, 0, 1, 1, 1, 1, 1, 0, 1, 1
| 1, 1, 1, 0, 1, 1, 1, 1, 1, 0, 1, 1, 1, 1, 1, 0, 1, 1, 1, 1, 1, 0, 1, 1, 1, 1, 1, 0, 1, 1, 1, 1, 1, 0, 1
| 1, 1, 1, 1, 0, 1, 1, 1, 1, 1, 0, 1, 1, 1, 1, 1, 0, 1, 1, 1, 1, 1, 0, 1, 1, 1, 1, 1, 0, 1, 1, 1, 1, 1, 0
| 1, 1, 1, 1, 1, 0, 0, 0, 0, 0, 0, 1, 1, 1, 1, 1, 1, 1, 1, 1, 1, 1, 1, 1, 1, 1, 1, 1, 1, 1, 1, 1, 1, 1, 1
| 0, 1, 1, 1, 1, 0, 0, 0, 0, 0, 0, 1, 0, 1, 1, 1, 1, 1, 0, 1, 1, 1, 1, 1, 0, 1, 1, 1, 1, 1, 0, 1, 1, 1, 1
| 1, 0, 1, 1, 1, 0, 0, 0, 0, 0, 0, 1, 1, 0, 1, 1, 1, 1, 1, 0, 1, 1, 1, 1, 1, 0, 1, 1, 1, 1, 1, 0, 1, 1, 1
| 1, 1, 0, 1, 1, 0, 0, 0, 0, 0, 0, 1, 1, 1, 0, 1, 1, 1, 1, 1, 0, 1, 1, 1, 1, 1, 0, 1, 1, 1, 1, 1, 0, 1, 1
| 1, 1, 1, 0, 1, 0, 0, 0, 0, 0, 0, 1, 1, 1, 1, 0, 1, 1, 1, 1, 1, 0, 1, 1, 1, 1, 1, 0, 1, 1, 1, 1, 1, 0, 1
| 1, 1, 1, 1, 0, 0, 0, 0, 0, 0, 0, 1, 1, 1, 1, 1, 0, 1, 1, 1, 1, 1, 0, 1, 1, 1, 1, 1, 0, 1, 1, 1, 1, 1, 0
| 1, 1, 1, 1, 1, 1, 1, 1, 1, 1, 1, 0, 0, 0, 0, 0, 0, 1, 1, 1, 1, 1, 1, 1, 1, 1, 1, 1, 1, 1, 1, 1, 1, 1, 1
| 0, 1, 1, 1, 1, 1, 0, 1, 1, 1, 1, 0, 0, 0, 0, 0, 0, 1, 0, 1, 1, 1, 1, 1, 0, 1, 1, 1, 1, 1, 0, 1, 1, 1, 1
| 1, 0, 1, 1, 1, 1, 1, 0, 1, 1, 1, 0, 0, 0, 0, 0, 0, 1, 1, 0, 1, 1, 1, 1, 1, 0, 1, 1, 1, 1, 1, 0, 1, 1, 1
| 1, 1, 0, 1, 1, 1, 1, 1, 0, 1, 1, 0, 0, 0, 0, 0, 0, 1, 1, 1, 0, 1, 1, 1, 1, 1, 0, 1, 1, 1, 1, 1, 0, 1, 1
| 1, 1, 1, 0, 1, 1, 1, 1, 1, 0, 1, 0, 0, 0, 0, 0, 0, 1, 1, 1, 1, 0, 1, 1, 1, 1, 1, 0, 1, 1, 1, 1, 1, 0, 1
| 1, 1, 1, 1, 0, 1, 1, 1, 1, 1, 0, 0, 0, 0, 0, 0, 0, 1, 1, 1, 1, 1, 0, 1, 1, 1, 1, 1, 0, 1, 1, 1, 1, 1, 0
| 1, 1, 1, 1, 1, 1, 1, 1, 1, 1, 1, 1, 1, 1, 1, 1, 1, 0, 0, 0, 0, 0, 0, 1, 1, 1, 1, 1, 1, 1, 1, 1, 1, 1, 1
| 0, 1, 1, 1, 1, 1, 0, 1, 1, 1, 1, 1, 0, 1, 1, 1, 1, 0, 0, 0, 0, 0, 0, 1, 0, 1, 1, 1, 1, 1, 0, 1, 1, 1, 1
| 1, 0, 1, 1, 1, 1, 1, 0, 1, 1, 1, 1, 1, 0, 1, 1, 1, 0, 0, 0, 0, 0, 0, 1, 1, 0, 1, 1, 1, 1, 1, 0, 1, 1, 1
| 1, 1, 0, 1, 1, 1, 1, 1, 0, 1, 1, 1, 1, 1, 0, 1, 1, 0, 0, 0, 0, 0, 0, 1, 1, 1, 0, 1, 1, 1, 1, 1, 0, 1, 1
| 1, 1, 1, 0, 1, 1, 1, 1, 1, 0, 1, 1, 1, 1, 1, 0, 1, 0, 0, 0, 0, 0, 0, 1, 1, 1, 1, 0, 1, 1, 1, 1, 1, 0, 1
| 1, 1, 1, 1, 0, 1, 1, 1, 1, 1, 0, 1, 1, 1, 1, 1, 0, 0, 0, 0, 0, 0, 0, 1, 1, 1, 1, 1, 0, 1, 1, 1, 1, 1, 0
| 1, 1, 1, 1, 1, 1, 1, 1, 1, 1, 1, 1, 1, 1, 1, 1, 1, 1, 1, 1, 1, 1, 1, 0, 0, 0, 0, 0, 0, 1, 1, 1, 1, 1, 1
| 0, 1, 1, 1, 1, 1, 0, 1, 1, 1, 1, 1, 0, 1, 1, 1, 1, 1, 0, 1, 1, 1, 1, 0, 0, 0, 0, 0, 0, 1, 0, 1, 1, 1, 1
| 1, 0, 1, 1, 1, 1, 1, 0, 1, 1, 1, 1, 1, 0, 1, 1, 1, 1, 1, 0, 1, 1, 1, 0, 0, 0, 0, 0, 0, 1, 1, 0, 1, 1, 1
| 1, 1, 0, 1, 1, 1, 1, 1, 0, 1, 1, 1, 1, 1, 0, 1, 1, 1, 1, 1, 0, 1, 1, 0, 0, 0, 0, 0, 0, 1, 1, 1, 0, 1, 1
| 1, 1, 1, 0, 1, 1, 1, 1, 1, 0, 1, 1, 1, 1, 1, 0, 1, 1, 1, 1, 1, 0, 1, 0, 0, 0, 0, 0, 0, 1, 1, 1, 1, 0, 1
| 1, 1, 1, 1, 0, 1, 1, 1, 1, 1, 0, 1, 1, 1, 1, 1, 0, 1, 1, 1, 1, 1, 0, 0, 0, 0, 0, 0, 0, 1, 1, 1, 1, 1, 0
| 1, 1, 1, 1, 1, 1, 1, 1, 1, 1, 1, 1, 1, 1, 1, 1, 1, 1, 1, 1, 1, 1, 1, 1, 1, 1, 1, 1, 1, 0, 0, 0, 0, 0, 0
| 0, 1, 1, 1, 1, 1, 0, 1, 1, 1, 1, 1, 0, 1, 1, 1, 1, 1, 0, 1, 1, 1, 1, 1, 0, 1, 1, 1, 1, 0, 0, 0, 0, 0, 0
| 1, 0, 1, 1, 1, 1, 1, 0, 1, 1, 1, 1, 1, 0, 1, 1, 1, 1, 1, 0, 1, 1, 1, 1, 1, 0, 1, 1, 1, 0, 0, 0, 0, 0, 0
| 1, 1, 0, 1, 1, 1, 1, 1, 0, 1, 1, 1, 1, 1, 0, 1, 1, 1, 1, 1, 0, 1, 1, 1, 1, 1, 0, 1, 1, 0, 0, 0, 0, 0, 0
| 1, 1, 1, 0, 1, 1, 1, 1, 1, 0, 1, 1, 1, 1, 1, 0, 1, 1, 1, 1, 1, 0, 1, 1, 1, 1, 1, 0, 1, 0, 0, 0, 0, 0, 0
| 1, 1, 1, 1, 0, 1, 1, 1, 1, 1, 0, 1, 1, 1, 1, 1, 0, 1, 1, 1, 1, 1, 0, 1, 1, 1, 1, 1, 0, 0, 0, 0, 0, 0, 0 |];
